20 46 132 114 11 27 150 55 94 147 130 162 25 86 112 54 177 91 116 144 135 140 47 1 143 29 99 191 18 195 36 50 118 34 61 117 123 52 59 43 92 121 122 187 70 3 154 63 149 58 84 142 188 95 85 159 64 173 77 193 79 156 133 68 106 183 157 151 15 62 153 53 90 76 42 38 72 14 171 136 83 40 146 78 180 12 178 87 164 23 26 179 119 137 51 7 65 37 185 148 33 80 129 174 0 155 199 125 49 168 161 31 104 96 166 93 16 89 139 138 97 169 48 69 152 88 10 167 109 22 41 172 184 21 192 110 102 57 127 28 190 196 198 107 128 35 175 158 74 66 131 197 6 170 60 111 73 194 100 189 120 45 145 124 108 126 75 160 134 71 56 30 98 44 165 32 67 13 186 103 105 182 81 17 5 39 82 2 176 4 115 101 8 9 141 19 24 113 163 181